certificates/rado_a27_c26_N56.drat
-55 -56 0
d -55 -1 -56 0
27 28 55 0
-2 55 0
-56 0
55 0
2 0
-1 0
-30 0
-27 0
3 0
31 0
29 0
28 0
26 0
0
